24° run output:
{
    "Function": "ClusterB500.tsp",
    "Problem dimension": [
        258,
        162,
        431,
        182,
        229,
        493,
        225,
        293,
        288,
        480,
        22,
        62,
        390,
        201,
        137,
        199,
        150,
        12,
        42,
        273,
        108,
        174,
        58,
        160,
        485,
        314,
        166,
        473,
        195,
        240,
        494,
        337,
        179,
        101,
        123,
        106,
        304,
        459,
        164,
        461,
        221,
        230,
        193,
        60,
        457,
        411,
        455,
        119,
        9,
        482,
        17,
        311,
        256,
        379,
        231,
        356,
        239,
        291,
        472,
        406,
        383,
        181,
        364,
        135,
        268,
        357,
        46,
        45,
        396,
        19,
        418,
        241,
        127,
        394,
        65,
        234,
        134,
        419,
        167,
        11,
        408,
        122,
        215,
        109,
        374,
        57,
        403,
        416,
        208,
        303,
        147,
        209,
        177,
        492,
        77,
        95,
        432,
        158,
        64,
        360,
        151,
        141,
        142,
        259,
        375,
        169,
        277,
        130,
        14,
        483,
        247,
        405,
        398,
        15,
        23,
        499,
        87,
        381,
        203,
        363,
        129,
        18,
        30,
        94,
        96,
        153,
        50,
        124,
        205,
        274,
        325,
        236,
        183,
        270,
        38,
        71,
        31,
        310,
        377,
        283,
        6,
        348,
        489,
        98,
        219,
        298,
        351,
        358,
        313,
        287,
        401,
        354,
        453,
        155,
        171,
        452,
        439,
        185,
        328,
        309,
        469,
        458,
        339,
        191,
        172,
        79,
        55,
        495,
        5,
        468,
        331,
        388,
        329,
        140,
        395,
        70,
        378,
        326,
        89,
        437,
        36,
        190,
        413,
        488,
        173,
        1,
        323,
        111,
        217,
        204,
        200,
        443,
        317,
        292,
        294,
        69,
        198,
        338,
        82,
        128,
        227,
        271,
        410,
        7,
        279,
        441,
        412,
        315,
        479,
        471,
        131,
        353,
        21,
        49,
        110,
        48,
        407,
        336,
        312,
        280,
        143,
        467,
        148,
        365,
        384,
        34,
        491,
        349,
        245,
        35,
        149,
        295,
        43,
        27,
        186,
        51,
        126,
        157,
        376,
        74,
        367,
        368,
        103,
        52,
        93,
        362,
        397,
        159,
        289,
        343,
        426,
        132,
        444,
        267,
        302,
        446,
        187,
        75,
        189,
        2,
        430,
        346,
        454,
        28,
        324,
        99,
        392,
        178,
        78,
        333,
        330,
        242,
        251,
        386,
        264,
        37,
        460,
        115,
        404,
        438,
        425,
        4,
        68,
        369,
        385,
        490,
        144,
        266,
        319,
        272,
        327,
        54,
        72,
        391,
        427,
        73,
        246,
        370,
        168,
        423,
        16,
        290,
        424,
        175,
        497,
        118,
        276,
        212,
        373,
        112,
        498,
        300,
        8,
        254,
        429,
        433,
        299,
        228,
        66,
        361,
        275,
        59,
        265,
        320,
        476,
        475,
        154,
        125,
        161,
        465,
        262,
        213,
        133,
        481,
        359,
        399,
        297,
        207,
        206,
        104,
        197,
        334,
        26,
        316,
        184,
        97,
        322,
        56,
        296,
        255,
        332,
        210,
        163,
        340,
        440,
        428,
        318,
        32,
        278,
        462,
        53,
        152,
        25,
        39,
        347,
        263,
        352,
        76,
        146,
        165,
        382,
        345,
        105,
        196,
        306,
        220,
        380,
        235,
        402,
        136,
        138,
        40,
        33,
        44,
        214,
        41,
        269,
        372,
        355,
        450,
        61,
        366,
        281,
        63,
        344,
        252,
        434,
        442,
        282,
        422,
        83,
        477,
        321,
        261,
        10,
        139,
        415,
        211,
        284,
        92,
        451,
        253,
        414,
        409,
        250,
        474,
        371,
        341,
        170,
        88,
        90,
        486,
        84,
        67,
        243,
        176,
        420,
        417,
        85,
        400,
        180,
        238,
        102,
        24,
        0,
        464,
        487,
        86,
        436,
        484,
        249,
        117,
        100,
        222,
        20,
        120,
        301,
        194,
        305,
        285,
        237,
        421,
        308,
        342,
        91,
        335,
        216,
        156,
        466,
        233,
        387,
        260,
        223,
        3,
        232,
        116,
        286,
        218,
        121,
        192,
        224,
        257,
        244,
        496,
        478,
        29,
        445,
        145,
        435,
        389,
        463,
        81,
        114,
        226,
        80,
        448,
        248,
        13,
        113,
        470,
        456,
        350,
        47,
        107,
        449,
        202,
        188,
        307,
        393,
        447
    ],
    "Global Optimum": 0,
    "Algorithm": "Genetic algorithm",
    "Parameters": {
        "population": 30,
        "offspring": 30,
        "mutation probability": 0.002,
        "crossover probability": 0.9
    },
    "Fitness": 550650,
    "Solution": [
        258,
        162,
        431,
        182,
        229,
        493,
        225,
        293,
        288,
        480,
        22,
        62,
        390,
        201,
        137,
        199,
        150,
        12,
        42,
        273,
        108,
        174,
        58,
        160,
        485,
        314,
        166,
        473,
        195,
        240,
        494,
        337,
        179,
        101,
        123,
        106,
        304,
        459,
        164,
        461,
        221,
        230,
        193,
        60,
        457,
        411,
        455,
        119,
        9,
        482,
        17,
        311,
        256,
        379,
        231,
        356,
        239,
        291,
        472,
        406,
        383,
        181,
        364,
        135,
        268,
        357,
        46,
        45,
        396,
        19,
        418,
        241,
        127,
        394,
        65,
        234,
        134,
        419,
        167,
        11,
        408,
        122,
        215,
        109,
        374,
        57,
        403,
        416,
        208,
        303,
        147,
        209,
        177,
        492,
        77,
        95,
        432,
        158,
        64,
        360,
        151,
        141,
        142,
        259,
        375,
        169,
        277,
        130,
        14,
        483,
        247,
        405,
        398,
        15,
        23,
        499,
        87,
        381,
        203,
        363,
        129,
        18,
        30,
        94,
        96,
        153,
        50,
        124,
        205,
        274,
        325,
        236,
        183,
        270,
        38,
        71,
        31,
        310,
        377,
        283,
        6,
        348,
        489,
        98,
        219,
        298,
        351,
        358,
        313,
        287,
        401,
        354,
        453,
        155,
        171,
        452,
        439,
        185,
        328,
        309,
        469,
        458,
        339,
        191,
        172,
        79,
        55,
        495,
        5,
        468,
        331,
        388,
        329,
        140,
        395,
        70,
        378,
        326,
        89,
        437,
        36,
        190,
        413,
        488,
        173,
        1,
        323,
        111,
        217,
        204,
        200,
        443,
        317,
        292,
        294,
        69,
        198,
        338,
        82,
        128,
        227,
        271,
        410,
        7,
        279,
        441,
        412,
        315,
        479,
        471,
        131,
        353,
        21,
        49,
        110,
        48,
        407,
        336,
        312,
        280,
        143,
        467,
        148,
        365,
        384,
        34,
        491,
        349,
        245,
        35,
        149,
        295,
        43,
        27,
        186,
        51,
        126,
        157,
        376,
        74,
        367,
        368,
        103,
        52,
        93,
        362,
        397,
        159,
        289,
        343,
        426,
        132,
        444,
        267,
        302,
        446,
        187,
        75,
        189,
        2,
        430,
        346,
        454,
        28,
        324,
        99,
        392,
        178,
        78,
        333,
        330,
        242,
        251,
        386,
        264,
        37,
        460,
        115,
        404,
        438,
        425,
        4,
        68,
        369,
        385,
        490,
        144,
        266,
        319,
        272,
        327,
        54,
        72,
        391,
        427,
        73,
        246,
        370,
        168,
        423,
        16,
        290,
        424,
        175,
        497,
        118,
        276,
        212,
        373,
        112,
        498,
        300,
        8,
        254,
        429,
        433,
        299,
        228,
        66,
        361,
        275,
        59,
        265,
        320,
        476,
        475,
        154,
        125,
        161,
        465,
        262,
        213,
        133,
        481,
        359,
        399,
        297,
        207,
        206,
        104,
        197,
        334,
        26,
        316,
        184,
        97,
        322,
        56,
        296,
        255,
        332,
        210,
        163,
        340,
        440,
        428,
        318,
        32,
        278,
        462,
        53,
        152,
        25,
        39,
        347,
        263,
        352,
        76,
        146,
        165,
        382,
        345,
        105,
        196,
        306,
        220,
        380,
        235,
        402,
        136,
        138,
        40,
        33,
        44,
        214,
        41,
        269,
        372,
        355,
        450,
        61,
        366,
        281,
        63,
        344,
        252,
        434,
        442,
        282,
        422,
        83,
        477,
        321,
        261,
        10,
        139,
        415,
        211,
        284,
        92,
        451,
        253,
        414,
        409,
        250,
        474,
        371,
        341,
        170,
        88,
        90,
        486,
        84,
        67,
        243,
        176,
        420,
        417,
        85,
        400,
        180,
        238,
        102,
        24,
        0,
        464,
        487,
        86,
        436,
        484,
        249,
        117,
        100,
        222,
        20,
        120,
        301,
        194,
        305,
        285,
        237,
        421,
        308,
        342,
        91,
        335,
        216,
        156,
        466,
        233,
        387,
        260,
        223,
        3,
        232,
        116,
        286,
        218,
        121,
        192,
        224,
        257,
        244,
        496,
        478,
        29,
        445,
        145,
        435,
        389,
        463,
        81,
        114,
        226,
        80,
        448,
        248,
        13,
        113,
        470,
        456,
        350,
        47,
        107,
        449,
        202,
        188,
        307,
        393,
        447
    ],
    "Nb of functions evaluations": 400020,
    "Computational time in seconds": 1781.5659697055817,
    "Stopping criterion in evaluations": 400000
}